; benchmark generated from python API
(set-info :status unknown)
(declare-fun x_days () Int)
(assert
 (>= x_days (- 36584)))
(assert
 (<= x_days 36829))
(assert
 (>= x_days 7303))
(assert
 (<= x_days 7305))
(assert
 (let (($x29 (or (and (= (mod 2000 4) 0) (and (distinct (mod 2000 100) 0) true)) (= (mod 2000 400) 0))))
(let ((?x36 (ite (= 3 2) (ite $x29 31 31) (ite (= 3 1) (ite $x29 0 0) 0))))
(let ((?x40 (ite $x29 60 59)))
(let ((?x41 (ite (= 3 3) ?x40 ?x36)))
(let ((?x46 (ite (= 3 4) (ite $x29 91 90) ?x41)))
(let ((?x52 (ite (= 3 5) (ite $x29 121 120) ?x46)))
(let ((?x58 (ite (= 3 6) (ite $x29 152 151) ?x52)))
(let ((?x64 (ite (= 3 7) (ite $x29 182 181) ?x58)))
(let ((?x70 (ite (= 3 8) (ite $x29 213 212) ?x64)))
(let ((?x76 (ite (= 3 9) (ite $x29 244 243) ?x70)))
(let ((?x82 (ite (= 3 10) (ite $x29 274 273) ?x76)))
(let ((?x88 (ite (= 3 11) (ite $x29 305 304) ?x82)))
(let ((?x16 (- (+ (* 365 (- 2000 1)) (div (- 2000 1) 4)) (div (- 2000 1) 100))))
(let ((?x95 (+ (+ ?x16 (div (- 2000 1) 400)) (ite (= 3 12) (ite $x29 335 334) ?x88))))
(let ((?x97 (+ ?x95 (- 1 1))))
(let ((?x615 (+ x_days ?x97)))
(let ((?x611 (mod ?x615 146097)))
(let ((?x660 (div ?x611 36524)))
(let ((?x180 (ite (<= 4 ?x660) 3 ?x660)))
(let ((?x518 (- ?x611 (* ?x180 36524))))
(let ((?x241 (mod ?x518 1461)))
(let ((?x507 (div ?x241 365)))
(let ((?x625 (ite (<= 4 ?x507) 3 ?x507)))
(let ((?x393 (+ (+ (* (div ?x615 146097) 400) (* ?x180 100)) (* (div ?x518 1461) 4))))
(let ((?x319 (+ (+ ?x393 ?x625) 1)))
(let (($x595 (or (and (= (mod ?x319 4) 0) (and (distinct (mod ?x319 100) 0) true)) (= (mod ?x319 400) 0))))
(let ((?x634 (- ?x241 (* ?x625 365))))
(let ((?x792 (ite $x595 31 31)))
(let (($x703 (>= ?x634 ?x792)))
(let ((?x657 (ite $x703 (+ (- ?x634 ?x792) 1) (+ (- ?x634 (ite $x595 0 0)) 1))))
(let ((?x220 (ite $x595 60 59)))
(let (($x229 (>= ?x634 ?x220)))
(let ((?x778 (ite $x595 91 90)))
(let (($x275 (>= ?x634 ?x778)))
(let ((?x310 (ite $x275 (+ (- ?x634 ?x778) 1) (ite $x229 (+ (- ?x634 ?x220) 1) ?x657))))
(let ((?x475 (ite $x595 121 120)))
(let (($x2534 (>= ?x634 ?x475)))
(let ((?x137 (ite $x595 152 151)))
(let (($x197 (>= ?x634 ?x137)))
(let ((?x372 (ite $x197 (+ (- ?x634 ?x137) 1) (ite $x2534 (+ (- ?x634 ?x475) 1) ?x310))))
(let ((?x786 (ite $x595 182 181)))
(let (($x99 (>= ?x634 ?x786)))
(let ((?x265 (ite $x595 213 212)))
(let (($x286 (>= ?x634 ?x265)))
(let ((?x353 (ite $x286 (+ (- ?x634 ?x265) 1) (ite $x99 (+ (- ?x634 ?x786) 1) ?x372))))
(let ((?x392 (ite $x595 244 243)))
(let (($x1900 (>= ?x634 ?x392)))
(let ((?x691 (ite $x595 274 273)))
(let (($x335 (>= ?x634 ?x691)))
(let ((?x282 (ite $x335 (+ (- ?x634 ?x691) 1) (ite $x1900 (+ (- ?x634 ?x392) 1) ?x353))))
(let ((?x594 (ite $x595 305 304)))
(let (($x187 (>= ?x634 ?x594)))
(let ((?x608 (ite $x595 335 334)))
(let (($x533 (>= ?x634 ?x608)))
(let ((?x1054 (ite $x533 (+ (- ?x634 ?x608) 1) (ite $x187 (+ (- ?x634 ?x594) 1) ?x282))))
(let ((?x597 (ite $x2534 5 (ite $x275 4 (ite $x229 3 (ite $x703 2 1))))))
(let ((?x433 (ite $x1900 9 (ite $x286 8 (ite $x99 7 (ite $x197 6 ?x597))))))
(let ((?x312 (- (+ (ite $x533 12 (ite $x187 11 (ite $x335 10 ?x433))) 0) 1)))
(let ((?x844 (+ (mod ?x312 12) 1)))
(let ((?x300 (ite (or (= ?x844 4) (= ?x844 6) (= ?x844 9) (= ?x844 11)) 30 31)))
(let (($x572 (and (= (mod (+ (+ ?x319 0) (div ?x312 12)) 4) 0) (and (distinct (mod (+ (+ ?x319 0) (div ?x312 12)) 100) 0) true))))
(let (($x287 (or $x572 (= (mod (+ (+ ?x319 0) (div ?x312 12)) 400) 0))))
(let ((?x626 (ite (= ?x844 2) (ite $x287 29 28) ?x300)))
(let ((?x580 (ite (= 2 ?x844) (ite $x287 31 31) (ite (= 1 ?x844) (ite $x287 0 0) 0))))
(let ((?x534 (ite (= 4 ?x844) (ite $x287 91 90) (ite (= 3 ?x844) (ite $x287 60 59) ?x580))))
(let ((?x3170 (ite (= 6 ?x844) (ite $x287 152 151) (ite (= 5 ?x844) (ite $x287 121 120) ?x534))))
(let ((?x545 (ite (= 8 ?x844) (ite $x287 213 212) (ite (= 7 ?x844) (ite $x287 182 181) ?x3170))))
(let ((?x2559 (ite (= 10 ?x844) (ite $x287 274 273) (ite (= 9 ?x844) (ite $x287 244 243) ?x545))))
(let ((?x2018 (ite (= 12 ?x844) (ite $x287 335 334) (ite (= 11 ?x844) (ite $x287 305 304) ?x2559))))
(let ((?x1668 (+ (* 365 (- (+ (+ ?x319 0) (div ?x312 12)) 1)) (div (- (+ (+ ?x319 0) (div ?x312 12)) 1) 4))))
(let ((?x833 (+ (- ?x1668 (div (- (+ (+ ?x319 0) (div ?x312 12)) 1) 100)) (div (- (+ (+ ?x319 0) (div ?x312 12)) 1) 400))))
(let ((?x774 (+ (+ ?x833 ?x2018) (- (ite (> 1 ?x1054) 1 (ite (> ?x1054 ?x626) ?x626 ?x1054)) 1))))
(= (- (+ ?x774 1) ?x97) 7305))))))))))))))))))))))))))))))))))))))))))))))))))))))))))))))))))))))))))
(check-sat)
